(set-info :source  loris-7.ddns.comp.nus.edu.sg/~project/hip/) 
;Variables declarations
(declare-fun m1_3213 () Int)
(declare-fun n1_3214 () Int)
(declare-fun n2_3230 () Int)
(declare-fun m2_3229 () Int)
(declare-fun n1_3227 () Int)
(declare-fun m1_3226 () Int)
(declare-fun q_3228 () Int)
(declare-fun p_3225 () Int)
(declare-fun rl_primed () Int)
(declare-fun l () Int)
(declare-fun lm () Int)
(declare-fun m () Int)
(declare-fun l_primed () Int)
(declare-fun rlm () Int)
(declare-fun rl () Int)
(declare-fun h_3208 () Int)
(declare-fun h_3204 () Int)
(declare-fun n () Int)
(declare-fun ln_3187 () Int)
(declare-fun ln () Int)
(declare-fun q_3215 () Int)
(declare-fun rr_primed () Int)
(declare-fun rrm () Int)
(declare-fun flted_32_3188 () Int)
(declare-fun rr () Int)
;Relations declarations
;Axioms assertions
;Antecedent
(assert (<= 0 lm))
(assert (= m1_3213 (+ (+ m2_3229 1) m1_3226)))
(assert (exists ((max_3237 Int)) (and (= n1_3214 (+ 1 max_3237)) (or (and (= max_3237 n1_3227) (>= n1_3227 n2_3230)) (and (= max_3237 n2_3230) (< n1_3227 n2_3230))))))
(assert (= h_3204 n1_3214))
(assert (or (and (= h_3204 (+ n1_3227 1)) (<= n2_3230 n1_3227)) (and (= h_3204 (+ n2_3230 1)) (< n1_3227 n2_3230))))
(assert (<= (+ 0 n2_3230) (+ n1_3227 1)))
(assert (<= n1_3227 (+ 1 n2_3230)))
(assert (= n2_3230 ln_3187))
(assert (= m2_3229 rlm))
(assert (= n1_3227 n))
(assert (= m1_3226 m))
(assert (= q_3228 rl_primed))
(assert (= p_3225 l_primed))
(assert (= rl_primed rl))
(assert (= l_primed l))
(assert (= m lm))
(assert (<= 0 m))
(assert (or (and (and (< l_primed 1) (= m 0)) (= n 0)) (and (and (<= 1 n) (<= 1 m)) (> l_primed 0))))
(assert (or (and (and (< rl 1) (= rlm 0)) (= ln_3187 0)) (and (and (<= 1 ln_3187) (<= 1 rlm)) (> rl 0))))
(assert (= h_3208 (+ 1 h_3204)))
(assert (= h_3204 (+ 1 n)))
(assert (<= 0 n))
(assert (<= 0 ln))
(assert (= n ln))
(assert (= ln_3187 ln))
(assert (= flted_32_3188 (+ 1 ln)))
(assert (= rr_primed rr))
(assert (= q_3215 rr_primed))
(assert (or (and (and (< rr 1) (= rrm 0)) (= flted_32_3188 0)) (and (and (<= 1 flted_32_3188) (<= 1 rrm)) (> rr 0))))
;Negation of Consequence
(assert (not (or (= rrm 0) (or (= flted_32_3188 0) (< rr 1)))))
(check-sat)